NAME: clu_25_5
TYPE: TSP
DIMENSION: 25
EDGE_WEIGHT_TYPE: EUC_2D
NODE_COORD_SECTION
1 18 77
2 84 4
3 12 78
4 90 70
5 34 -2
6 25 20
7 8 71
8 17 66
9 59 -7
10 105 21
11 51 5
12 30 35
13 76 2
14 79 -3
15 98 3
16 33 25
17 87 5
18 -9 74
19 101 30
20 86 11
21 96 70
22 47 38
23 79 83
24 29 22
25 -2 63
EOF
